&CONTROL
   calculation      = 'scf'
   tstress          = .true.
   tprnfor          = .true.
   prefix           = 'FFPt_ph_scf'
   pseudo_dir       = '/mnt/research/scbgroup/christina/bio-oil-ECH/pseudo'
/
&SYSTEM
   ecutwfc          = 35
   ecutrho          = 279.3
   occupations      = 'smearing'
   degauss          = 0.1
   smearing         = 'm-p'
   ntyp             = 4
   nat              = 59
   ibrav            = 0
/
&ELECTRONS
   conv_thr         = 1e-12
   mixing_beta      = 0.5
/
&IONS
/
&CELL
/
&FCP
/
&RISM
/
ATOMIC_SPECIES
Pt 195.084 Pt.pbe-n-rrkjus_psl.1.0.0.UPF
O 15.999 O.pbe-n-rrkjus_psl.1.0.0.UPF
C 12.011 C.pbe-n-rrkjus_psl.1.0.0.UPF
H 1.008 H.pbe-rrkjus_psl.1.0.0.UPF

K_POINTS automatic
1 1 1  0 0 0

CELL_PARAMETERS angstrom
11.08743411334599 0.00000000000000 0.00000000000000
5.54371705667299 9.60199512801046 0.00000000000000
0.00000000000000 0.00000000000000 24.52642430265975

ATOMIC_POSITIONS angstrom
Pt 1.3858852100 0.8001412000 9.9263750900   0 0 0
Pt 4.1577136200 0.7998607100 9.9260138200   0 0 0
Pt 6.9297207100 0.7998607100 9.9260138200   0 0 0
Pt 9.7015491200 0.8001412000 9.9263750900   0 0 0
Pt 2.7715565100 3.2007552600 9.9260138200   0 0 0
Pt 5.5437171600 3.2006666000 9.9255302800   0 0 0
Pt 8.3158778200 3.2007552600 9.9260138200   0 0 0
Pt 11.0874343300 3.2007850400 9.9263714800   0 0 0
Pt 4.1575600500 5.6013838200 9.9260138200   0 0 0
Pt 6.9298742800 5.6013838200 9.9260138200   0 0 0
Pt 9.7017065700 5.6012829000 9.9263544800   0 0 0
Pt 12.4731620900 5.6012829000 9.9263544800   0 0 0
Pt 5.5437171600 8.0017174000 9.9263750900   0 0 0
Pt 8.3156783200 8.0016072700 9.9263714800   0 0 0
Pt 11.0874343300 8.0014337800 9.9263544800   0 0 0
Pt 13.8591903400 8.0016072700 9.9263714800   0 0 0
Pt 0.0117314300 1.6108680700 12.2926697100  
Pt 2.7702179500 1.6109666500 12.2739050000  
Pt 5.5310185200 1.6087886900 12.2847873300  
Pt 8.3175830000 1.5988762500 12.2610971600  
Pt 1.3878209200 4.0012671200 12.2656324100  
Pt 4.1460500200 3.9960435500 12.2957258100  
Pt 6.9233836900 3.9977904200 12.2579080600  
Pt 9.7018080600 3.9988169400 12.2580747200  
Pt 2.7707618700 6.3902619600 12.2825738300  
Pt 5.5354120200 6.3997964600 12.2582633500  
Pt 8.3115400700 6.4013244800 12.2564887100  
Pt 11.0904078300 6.4012121700 12.2569792900  
Pt 4.1552709600 8.8049983200 12.2621726100  
Pt 6.9239682800 8.8069270800 12.2564171500  
Pt 9.7026943300 8.8072204200 12.2537004700  
Pt 12.4761235700 8.8030392300 12.2617260600  
Pt -0.0058823100 0.0036626700 14.6029950000  
Pt 2.7578893800 -0.0441834400 14.5656706200  
Pt 5.5527817700 -0.0248761900 14.5990262000  
Pt 8.3167505000 0.0054999300 14.6099836500  
Pt 1.3847074000 2.4288867300 14.6859353800  
Pt 4.1784492000 2.3460155700 14.6943823800  
Pt 6.9464627100 2.3976421700 14.5943745200  
Pt 9.6932958600 2.4101866900 14.6047660200  
Pt 2.7471896700 4.8465683000 14.6916519900  
Pt 5.5556258200 4.8096254300 14.5825353800  
Pt 8.3051687700 4.8060406700 14.5966803400  
Pt 11.0476766700 4.8267185500 14.5853479400  
Pt 4.1556915300 7.2190827900 14.6012105800  
Pt 6.9171627300 7.1962292400 14.5939004300  
Pt 9.6873312700 7.1982677300 14.5920963200  
Pt 12.4588829400 7.2195289100 14.6026171100  
O 3.8496536300 4.3093327600 17.3307103500  
O 6.1491819400 1.6467530800 17.8406362300  
C 4.3379011400 3.0502196600 17.2568950100  
C 3.3705084200 2.1281789900 16.8040073200  
C 2.0906922600 2.8648738800 16.6472000200  
C 2.5420584600 4.3032540400 16.7172474200  
C 5.6958732300 2.7853575300 17.7546845200  
H 3.4295420800 1.0711615100 17.0543040400  
H 1.2380567000 2.5610422300 17.2675357800  
H 1.9154313900 5.0442246800 17.2188194700  
H 6.2663077300 3.6890944800 18.0655407500  

