&CONTROL
   calculation      = 'relax'
   nstep            = 500
   forc_conv_thr    = 0.001
   pseudo_dir       = '/mnt/research/scbgroup/christina/bio-oil-ECH/pseudo'
/
&SYSTEM
   ecutwfc          = 35
   ecutrho          = 279.3
   occupations      = 'smearing'
   degauss          = 0.1
   smearing         = 'm-p'
   vdw_corr         = 'dft-d3'
   ntyp             = 4
   nat              = 59
   ibrav            = 0
/
&ELECTRONS
   conv_thr         = 0.0001
   mixing_beta      = 0.5
/
&IONS
/
&CELL
/
&FCP
/
&RISM
/
ATOMIC_SPECIES
Pt 195.084 Pt.pbe-n-rrkjus_psl.1.0.0.UPF
O 15.999 O.pbe-n-rrkjus_psl.1.0.0.UPF
C 12.011 C.pbe-n-rrkjus_psl.1.0.0.UPF
H 1.008 H.pbe-rrkjus_psl.1.0.0.UPF

K_POINTS gamma

CELL_PARAMETERS angstrom
11.08743411334599 0.00000000000000 0.00000000000000
5.54371705667299 9.60199512801046 0.00000000000000
0.00000000000000 0.00000000000000 24.52642430265975

ATOMIC_POSITIONS angstrom
Pt 1.3858852100 0.8001412000 9.9263750900   0 0 0
Pt 4.1577136200 0.7998607100 9.9260138200   0 0 0
Pt 6.9297207100 0.7998607100 9.9260138200   0 0 0
Pt 9.7015491200 0.8001412000 9.9263750900   0 0 0
Pt 2.7715565100 3.2007552600 9.9260138200   0 0 0
Pt 5.5437171600 3.2006666000 9.9255302800   0 0 0
Pt 8.3158778200 3.2007552600 9.9260138200   0 0 0
Pt 11.0874343300 3.2007850400 9.9263714800   0 0 0
Pt 4.1575600500 5.6013838200 9.9260138200   0 0 0
Pt 6.9298742800 5.6013838200 9.9260138200   0 0 0
Pt 9.7017065700 5.6012829000 9.9263544800   0 0 0
Pt 12.4731620900 5.6012829000 9.9263544800   0 0 0
Pt 5.5437171600 8.0017174000 9.9263750900   0 0 0
Pt 8.3156783200 8.0016072700 9.9263714800   0 0 0
Pt 11.0874343300 8.0014337800 9.9263544800   0 0 0
Pt 13.8591903400 8.0016072700 9.9263714800   0 0 0
Pt 0.0000000000 1.6002400600 12.2632972200  
Pt 2.7714412100 1.6000923300 12.2632163400  
Pt 5.5437171600 1.5999977000 12.2630954700  
Pt 8.3159931200 1.6000923300 12.2632163400  
Pt 1.3855916500 4.0009909800 12.2633284000  
Pt 4.1574972400 4.0010010500 12.2630954700  
Pt 6.9299370900 4.0010010500 12.2630954700  
Pt 9.7018426800 4.0009909800 12.2633284000  
Pt 2.7715531600 6.4015467400 12.2633284000  
Pt 5.5437171600 6.4018151400 12.2632163400  
Pt 8.3158811700 6.4015467400 12.2633284000  
Pt 11.0874343300 6.4013331900 12.2633345600  
Pt 4.1578686200 8.8018797600 12.2632972200  
Pt 6.9295657100 8.8018797600 12.2632972200  
Pt 9.7014728200 8.8014618700 12.2633284000  
Pt 12.4733958400 8.8014618700 12.2633284000  
Pt 0.0000000000 0.0000000000 14.5999808300  
Pt 2.7717282800 -0.0003263900 14.6001542400  
Pt 5.5437171600 -0.0005561500 14.6002665600  
Pt 8.3157060500 -0.0003263900 14.6001542400  
Pt 1.3855814800 2.4005503000 14.6001542400  
Pt 4.1574004300 2.4002762600 14.6003111900  
Pt 6.9300339000 2.4002762600 14.6003111900  
Pt 9.7018528500 2.4005503000 14.6001542400  
Pt 2.7713769400 4.8012779700 14.6002665600  
Pt 5.5437171600 4.8014472800 14.6003111900  
Pt 8.3160573900 4.8012779700 14.6002665600  
Pt 11.0874343300 4.8012190600 14.6001795800  
Pt 4.1575703600 7.2017758800 14.6001542400  
Pt 6.9298639700 7.2017758800 14.6001542400  
Pt 9.7016948400 7.2013902600 14.6001795800  
Pt 12.4731738200 7.2013902600 14.6001795800  
O 4.6000000000 3.8000000000 16.6003111900  
O 7.1277263133 1.3012751361 16.6003111900  
C 5.1129954649 2.5417643214 16.6003111900  
C 4.1027668825 1.6081808750 16.6002111900  
C 2.8912556432 2.3398682720 16.6002111900  
C 3.2475044061 3.6683407101 16.6001111900  
C 6.5290772346 2.4001983594 16.6001111900  
H 4.2192749256 0.5336293937 16.6001111900  
H 1.8845358830 1.9480576361 16.6002111900  
H 2.6881127643 4.5923909690 16.6001111900  
H 7.1174495186 3.3334448356 16.5999111900  

